<?xml version = "1.0" standalone="yes"?>
<!-- This file has been generated by DOcplex version 2.23.222  -->
<CPLEXSolution version="1.0">
 <header
   problemName="CVRP"
   objectiveValue="10278.1"
  />
 <variables>
  <variable name="x_0_1" index="0" value="1.00000"/>
  <variable name="x_0_2" index="1" value="1.00000"/>
  <variable name="x_0_3" index="2" value="1.00000"/>
  <variable name="x_0_6" index="5" value="1.00000"/>
  <variable name="x_0_7" index="6" value="1.00000"/>
  <variable name="x_0_8" index="7" value="1.00000"/>
  <variable name="x_0_9" index="8" value="1.00000"/>
  <variable name="x_0_10" index="9" value="1.00000"/>
  <variable name="x_0_14" index="13" value="1.00000"/>
  <variable name="x_0_19" index="18" value="1.00000"/>
  <variable name="x_1_18" index="36" value="1.00000"/>
  <variable name="x_2_13" index="50" value="1.00000"/>
  <variable name="x_3_0" index="57" value="1.00000"/>
  <variable name="x_4_0" index="76" value="1.00000"/>
  <variable name="x_5_0" index="95" value="1.00000"/>
  <variable name="x_6_0" index="114" value="1.00000"/>
  <variable name="x_7_4" index="137" value="1.00000"/>
  <variable name="x_8_15" index="166" value="1.00000"/>
  <variable name="x_9_0" index="171" value="1.00000"/>
  <variable name="x_10_11" index="200" value="1.00000"/>
  <variable name="x_11_0" index="209" value="1.00000"/>
  <variable name="x_12_0" index="228" value="1.00000"/>
  <variable name="x_13_0" index="247" value="1.00000"/>
  <variable name="x_14_16" index="281" value="1.00000"/>
  <variable name="x_15_12" index="297" value="1.00000"/>
  <variable name="x_16_17" index="320" value="1.00000"/>
  <variable name="x_17_5" index="328" value="1.00000"/>
  <variable name="x_18_0" index="342" value="1.00000"/>
  <variable name="x_19_0" index="361" value="1.00000"/>
  <variable name="u_1" index="380" value="7.00000"/>
  <variable name="u_2" index="381" value="5.00000"/>
  <variable name="u_3" index="382" value="45.00000"/>
  <variable name="u_4" index="383" value="35.00000"/>
  <variable name="u_5" index="384" value="45.00000"/>
  <variable name="u_6" index="385" value="39.00000"/>
  <variable name="u_7" index="386" value="30.00000"/>
  <variable name="u_8" index="387" value="24.00000"/>
  <variable name="u_9" index="388" value="36.00000"/>
  <variable name="u_10" index="389" value="32.00000"/>
  <variable name="u_11" index="390" value="40.00000"/>
  <variable name="u_12" index="391" value="43.00000"/>
  <variable name="u_13" index="392" value="45.00000"/>
  <variable name="u_14" index="393" value="7.00000"/>
  <variable name="u_15" index="394" value="29.00000"/>
  <variable name="u_16" index="395" value="24.00000"/>
  <variable name="u_17" index="396" value="43.00000"/>
  <variable name="u_18" index="397" value="45.00000"/>
  <variable name="u_19" index="398" value="45.00000"/>
 </variables>
</CPLEXSolution>
